20J6M/DAT/20J6MNNL-7.dat
20 6
28.8641 28.8641
29.7689 29.7689
23.9584 23.9584
25.3341 25.3341
24.221 24.221
25.4181 25.4181
19.5529 19.5529
21.1422 21.1422
21.4819 21.4819
21.757 21.757
33.4171 33.4171
13.824 13.824
22.1314 22.1314
21.9014 21.9014
25.6808 25.6808
20.6533 20.6533
22.258 22.258
20.5566 20.5566
28.5584 28.5584
23.5089 23.5089
473.9885