20J6M/SOL/20J6MNNL-7.sol
solution status: optimal solution found
objective value:                     78.9980833333333
x#1#3                                               1 	(obj:0)
x#2#3                               0.258552269874489 	(obj:0)
x#2#6                               0.741447730125511 	(obj:0)
x#3#2                                               1 	(obj:0)
x#4#4                                               1 	(obj:0)
x#5#1                                               1 	(obj:0)
x#6#1                               0.059829412898681 	(obj:0)
x#6#2                               0.508352971570127 	(obj:0)
x#6#4                               0.431817615531189 	(obj:0)
x#7#3                                               1 	(obj:0)
x#8#5                                               1 	(obj:0)
x#9#5                                               1 	(obj:0)
x#10#2                              0.912824225153591 	(obj:0)
x#10#5                              0.087175774846409 	(obj:0)
x#11#6                                              1 	(obj:0)
x#12#5                                              1 	(obj:0)
x#13#4                                              1 	(obj:0)
x#14#1                                              1 	(obj:0)
x#15#1                                              1 	(obj:0)
x#16#5                                              1 	(obj:0)
x#17#2                                              1 	(obj:0)
x#18#4                                              1 	(obj:0)
x#19#1                              0.198685267148488 	(obj:0)
x#19#3                              0.801314732851512 	(obj:0)
x#20#6                                              1 	(obj:0)
z                                    78.9980833333333 	(obj:1)
